50
120
97
97
96
94
93
91
89
89
86
83
79
78
77
77
77
75
75
74
71
68
68
67
65
63
61
61
58
57
56
54
48
46
44
43
41
41
40
38
36
36
35
35
35
35
35
34
33
33
33
31
